sat
(:eliminated-applications 2
 :eliminated-vars         1
 :max-memory              18.06
 :memory                  17.96
 :nlsat-propagations      6
 :nlsat-stages            3
 :num-allocs              5653
 :rlimit-count            2399
 :time                    0.00
 :total-time              0.01)
